generated by phonopy
   1.0
2.95 0 0
-1.475 2.554774941164094 0
0 0 4.68
Ti
   2
Direct
  0.3333333333333360  0.6666666666666640  0.2500000000000000
  0.6666666666666640  0.3333333333333360  0.7500000000000000
