phelel
1.0
     3.573610682008501    -0.000000000000000    -0.000000000000000
     0.000000000000000     3.573610682008501    -0.000000000000000
     0.000000000000000     0.000000000000000     3.573610682008501
C
8
Direct
  0.000000000000000  0.000000000000000  0.000000000000000
  0.500000000000000  0.500000000000000 -0.000000000000000
  0.500000000000000  0.000000000000000  0.500000000000000
  0.000000000000000  0.500000000000000  0.500000000000000
  0.250000000000000  0.250000000000000  0.250000000000000
  0.750000000000000  0.750000000000000  0.250000000000000
  0.750000000000000  0.250000000000000  0.750000000000000
  0.250000000000000  0.750000000000000  0.750000000000000
